java.io.BufferedInputStream@36baf30c
tw.exact.Graph@2ff4acd0
s td 15 2 5
b 1
b 2 5
b 3 3
b 4 3 4
b 5 4 5
b 6
b 7 2
b 8
b 9 3 4
b 10 2 3
b 11 4
b 12 1 2
b 13 2
b 14 3 4
b 15 3
1 13
2 5
2 8
3 10
3 14
4 11
4 9
5 11
6 15
7 10
7 12
9 14
9 15
12 13